1028
1111
1111
1086
1100
1073
943
943
1085
1085
1072
976
976
1018
1012
1012
1012
1073
1064
1064
948
1062
999
1034
897
1086
1015
1015
970
1015
994
994
994
994
967
967
1006
1006
1006
1006
1019
951
951
951
951
951
1019
1019
975
975
940
959
958
958
958
958
958
958
958
958
958
958
958
958
958
1010
1010
982
982
926
926
926
926
926
926
1022
989
989
975
975
980
980
980
988
985
962
936
890
963
949
954
954
954
954
988
988
1008
984
890
899
961
859
859
859
859
910
876
876
944
987
987
959
842
842
842
949
949
918
807
863
918
852
964
958
958
990
958
1014
974
963
1015
911
1006
963
926
927
927
921
921
896
1013
953
953
953
953
953
950
948
948
914
965
910
910
910
910
910
951
964
931
999
988
988
1004
1023
949
915
867
988
988
954
954
948
954
954
863
863
863
863
863
886
965
996
919
919
919
959
916
966
965
814
909
909
909
948
889
936
834
832
832
834
